(declare-const X String)
; Authorization\x3a\d+lnzzlnbk\x2fpkrm\.fin
(assert (str.in_re X (re.++ (str.to_re "Authorization:") (re.+ (re.range "0" "9")) (str.to_re "lnzzlnbk/pkrm.fin\u{a}"))))
; /SOAPAction\x3a[^\r\n]*Get(ServerTime|FileList|File)\x22/i
(assert (not (str.in_re X (re.++ (str.to_re "/SOAPAction:") (re.* (re.union (str.to_re "\u{d}") (str.to_re "\u{a}"))) (str.to_re "Get") (re.union (str.to_re "ServerTime") (str.to_re "FileList") (str.to_re "File")) (str.to_re "\u{22}/i\u{a}")))))
; www\x2Epurityscan\x2Ecom.*
(assert (not (str.in_re X (re.++ (str.to_re "www.purityscan.com") (re.* re.allchar) (str.to_re "\u{a}")))))
; /filename=[^\n]*\x2etga/i
(assert (str.in_re X (re.++ (str.to_re "/filename=") (re.* (re.comp (str.to_re "\u{a}"))) (str.to_re ".tga/i\u{a}"))))
; Host\x3A.*NETObserve\d+Host\x3aohgdhkzfhdzo\x2fuwpOK\r\n
(assert (str.in_re X (re.++ (str.to_re "Host:") (re.* re.allchar) (str.to_re "NETObserve") (re.+ (re.range "0" "9")) (str.to_re "Host:ohgdhkzfhdzo/uwpOK\u{d}\u{a}\u{a}"))))
(check-sat)
